rcpsp/heur_output_bi_constraints/Log=10/heurj60.txt
encoding rcpsp/j60.sm/j6017_3.sm nv: 136136 nc: 366568 enctime: 4.73
encoding rcpsp/j60.sm/j6017_3.sm nv: 43384 nc: 114848 enctime: 0.82
c File: j6017_3.smnaivebi10.wcnf
c optimal
c final solution cost: 89
c CPU time: 13.140955
s OPTIMUM FOUND

c File: j6017_3.smbi10.wcnf
c optimal
c final solution cost: 89
c CPU time: 0.490309
s OPTIMUM FOUND


rcpsp/heur_output_bi_constraints/Log=10/heurj60.txt
encoding rcpsp/j60.sm/j6017_4.sm nv: 113526 nc: 286955 enctime: 3.39
encoding rcpsp/j60.sm/j6017_4.sm nv: 31164 nc: 77165 enctime: 0.53
c File: j6017_4.smnaivebi10.wcnf
c optimal
c final solution cost: 71
c CPU time: 0.854693
s OPTIMUM FOUND

c File: j6017_4.smbi10.wcnf
c optimal
c final solution cost: 71
c CPU time: 0.178252
s OPTIMUM FOUND


rcpsp/heur_output_bi_constraints/Log=10/heurj60.txt
encoding rcpsp/j60.sm/j6017_5.sm nv: 115368 nc: 276079 enctime: 2.98
encoding rcpsp/j60.sm/j6017_5.sm nv: 30514 nc: 71658 enctime: 0.47
c File: j6017_5.smnaivebi10.wcnf
c optimal
c final solution cost: 57
c CPU time: 1.018225
s OPTIMUM FOUND

c File: j6017_5.smbi10.wcnf
c optimal
c final solution cost: 57
c CPU time: 0.240899
s OPTIMUM FOUND


rcpsp/heur_output_bi_constraints/Log=10/heurj60.txt
encoding rcpsp/j60.sm/j6017_6.sm nv: 123968 nc: 303946 enctime: 3.39
encoding rcpsp/j60.sm/j6017_6.sm nv: 40768 nc: 98546 enctime: 0.67
c File: j6017_6.smnaivebi10.wcnf
c optimal
c final solution cost: 69
c CPU time: 7.173487
s OPTIMUM FOUND

c File: j6017_6.smbi10.wcnf
c optimal
c final solution cost: 69
c CPU time: 0.416921
s OPTIMUM FOUND


rcpsp/heur_output_bi_constraints/Log=10/heurj60.txt
encoding rcpsp/j60.sm/j6017_7.sm nv: 128880 nc: 346305 enctime: 4.41
encoding rcpsp/j60.sm/j6017_7.sm nv: 34920 nc: 91830 enctime: 0.64
c File: j6017_7.smnaivebi10.wcnf
c optimal
c final solution cost: 82
c CPU time: 1.802803
s OPTIMUM FOUND

c File: j6017_7.smbi10.wcnf
c optimal
c final solution cost: 82
c CPU time: 0.267031
s OPTIMUM FOUND


rcpsp/heur_output_bi_constraints/Log=10/heurj60.txt
encoding rcpsp/j60.sm/j6017_8.sm nv: 119160 nc: 315275 enctime: 3.87
encoding rcpsp/j60.sm/j6017_8.sm nv: 37080 nc: 96395 enctime: 0.67
c File: j6017_8.smnaivebi10.wcnf
c optimal
c final solution cost: 80
c CPU time: 2.423850
s OPTIMUM FOUND

c File: j6017_8.smbi10.wcnf
c optimal
c final solution cost: 80
c CPU time: 0.872593
s OPTIMUM FOUND


rcpsp/heur_output_bi_constraints/Log=10/heurj60.txt
encoding rcpsp/j60.sm/j6017_9.sm nv: 112081 nc: 296675 enctime: 3.70
encoding rcpsp/j60.sm/j6017_9.sm nv: 29148 nc: 75361 enctime: 0.53
c File: j6017_9.smnaivebi10.wcnf
c optimal
c final solution cost: 72
c CPU time: 1.943311
s OPTIMUM FOUND

c File: j6017_9.smbi10.wcnf
c optimal
c final solution cost: 72
c CPU time: 0.254150
s OPTIMUM FOUND


rcpsp/heur_output_bi_constraints/Log=10/heurj60.txt
encoding rcpsp/j60.sm/j601_7.sm nv: 122436 nc: 316597 enctime: 3.70
encoding rcpsp/j60.sm/j601_7.sm nv: 27208 nc: 68419 enctime: 0.47
c File: j601_7.smnaivebi10.wcnf
c optimal
c final solution cost: 71
c CPU time: 7.183054
s OPTIMUM FOUND

c File: j601_7.smbi10.wcnf
c optimal
c final solution cost: 71
c CPU time: 0.699735
s OPTIMUM FOUND


rcpsp/heur_output_bi_constraints/Log=10/heurj60.txt
encoding rcpsp/j60.sm/j6018_10.sm nv: 173568 nc: 446909 enctime: 5.66
encoding rcpsp/j60.sm/j6018_10.sm nv: 47460 nc: 119921 enctime: 0.83
c File: j6018_10.smnaivebi10.wcnf
c optimal
c final solution cost: 92
c CPU time: 1.263733
s OPTIMUM FOUND

c File: j6018_10.smbi10.wcnf
c optimal
c final solution cost: 92
c CPU time: 0.157079
s OPTIMUM FOUND


rcpsp/heur_output_bi_constraints/Log=10/heurj60.txt
encoding rcpsp/j60.sm/j6018_1.sm nv: 139527 nc: 350058 enctime: 4.11
encoding rcpsp/j60.sm/j6018_1.sm nv: 37710 nc: 92721 enctime: 0.62
c File: j6018_1.smnaivebi10.wcnf
c optimal
c final solution cost: 74
c CPU time: 1.059351
s OPTIMUM FOUND

c File: j6018_1.smbi10.wcnf
c optimal
c final solution cost: 74
c CPU time: 0.132859
s OPTIMUM FOUND


rcpsp/heur_output_bi_constraints/Log=10/heurj60.txt
encoding rcpsp/j60.sm/j6018_2.sm nv: 167670 nc: 412297 enctime: 4.87
encoding rcpsp/j60.sm/j6018_2.sm nv: 34506 nc: 82675 enctime: 0.58
c File: j6018_2.smnaivebi10.wcnf
c optimal
c final solution cost: 69
c CPU time: 1.335638
s OPTIMUM FOUND

c File: j6018_2.smbi10.wcnf
c optimal
c final solution cost: 69
c CPU time: 0.110545
s OPTIMUM FOUND


rcpsp/heur_output_bi_constraints/Log=10/heurj60.txt
encoding rcpsp/j60.sm/j6018_3.sm nv: 138993 nc: 343715 enctime: 4.05
encoding rcpsp/j60.sm/j6018_3.sm nv: 37671 nc: 91463 enctime: 0.62
c File: j6018_3.smnaivebi10.wcnf
c optimal
c final solution cost: 77
c CPU time: 1.172277
s OPTIMUM FOUND

c File: j6018_3.smbi10.wcnf
c optimal
c final solution cost: 77
c CPU time: 0.116052
s OPTIMUM FOUND


rcpsp/heur_output_bi_constraints/Log=10/heurj60.txt
encoding rcpsp/j60.sm/j6018_4.sm nv: 171308 nc: 440027 enctime: 5.34
encoding rcpsp/j60.sm/j6018_4.sm nv: 35256 nc: 88158 enctime: 0.61
c File: j6018_4.smnaivebi10.wcnf
c optimal
c final solution cost: 67
c CPU time: 1.867715
s OPTIMUM FOUND

c File: j6018_4.smbi10.wcnf
c optimal
c final solution cost: 67
c CPU time: 0.127574
s OPTIMUM FOUND


rcpsp/heur_output_bi_constraints/Log=10/heurj60.txt
encoding rcpsp/j60.sm/j6018_5.sm nv: 141036 nc: 347636 enctime: 4.08
encoding rcpsp/j60.sm/j6018_5.sm nv: 39858 nc: 96539 enctime: 0.66
c File: j6018_5.smnaivebi10.wcnf
c optimal
c final solution cost: 80
c CPU time: 0.945151
s OPTIMUM FOUND

c File: j6018_5.smbi10.wcnf
c optimal
c final solution cost: 80
c CPU time: 0.127474
s OPTIMUM FOUND


rcpsp/heur_output_bi_constraints/Log=10/heurj60.txt
encoding rcpsp/j60.sm/j6018_6.sm nv: 155685 nc: 373264 enctime: 4.21
encoding rcpsp/j60.sm/j6018_6.sm nv: 32010 nc: 74914 enctime: 0.50
c File: j6018_6.smnaivebi10.wcnf
c optimal
c final solution cost: 61
c CPU time: 0.946822
s OPTIMUM FOUND

c File: j6018_6.smbi10.wcnf
c optimal
c final solution cost: 61
c CPU time: 0.081234
s OPTIMUM FOUND


rcpsp/heur_output_bi_constraints/Log=10/heurj60.txt
encoding rcpsp/j60.sm/j6018_7.sm nv: 145820 nc: 353087 enctime: 4.02
encoding rcpsp/j60.sm/j6018_7.sm nv: 55200 nc: 132250 enctime: 0.91
c File: j6018_7.smnaivebi10.wcnf
c optimal
c final solution cost: 85
c CPU time: 1.190639
s OPTIMUM FOUND

c File: j6018_7.smbi10.wcnf
c optimal
c final solution cost: 85
c CPU time: 0.288955
s OPTIMUM FOUND


rcpsp/heur_output_bi_constraints/Log=10/heurj60.txt
encoding rcpsp/j60.sm/j6018_8.sm nv: 151970 nc: 377516 enctime: 4.40
encoding rcpsp/j60.sm/j6018_8.sm nv: 31395 nc: 75946 enctime: 0.52
c File: j6018_8.smnaivebi10.wcnf
c optimal
c final solution cost: 66
c CPU time: 1.539550
s OPTIMUM FOUND

c File: j6018_8.smbi10.wcnf
c optimal
c final solution cost: 66
c CPU time: 0.103137
s OPTIMUM FOUND


rcpsp/heur_output_bi_constraints/Log=10/heurj60.txt
encoding rcpsp/j60.sm/j6018_9.sm nv: 138689 nc: 347316 enctime: 4.02
encoding rcpsp/j60.sm/j6018_9.sm nv: 29330 nc: 71439 enctime: 0.48
c File: j6018_9.smnaivebi10.wcnf
c optimal
c final solution cost: 69
c CPU time: 1.164418
s OPTIMUM FOUND

c File: j6018_9.smbi10.wcnf
c optimal
c final solution cost: 69
c CPU time: 0.080512
s OPTIMUM FOUND


rcpsp/heur_output_bi_constraints/Log=10/heurj60.txt
encoding rcpsp/j60.sm/j601_8.sm nv: 135772 nc: 356875 enctime: 4.11
encoding rcpsp/j60.sm/j601_8.sm nv: 35062 nc: 90115 enctime: 0.58
c File: j601_8.smnaivebi10.wcnf
c optimal
c final solution cost: 74
c CPU time: 4.008578
s OPTIMUM FOUND

c File: j601_8.smbi10.wcnf
c optimal
c final solution cost: 74
c CPU time: 0.315460
s OPTIMUM FOUND


rcpsp/heur_output_bi_constraints/Log=10/heurj60.txt
encoding rcpsp/j60.sm/j6019_10.sm nv: 188720 nc: 448350 enctime: 4.89
encoding rcpsp/j60.sm/j6019_10.sm nv: 45360 nc: 105822 enctime: 0.68
c File: j6019_10.smnaivebi10.wcnf
c optimal
c final solution cost: 75
c CPU time: 1.107584
s OPTIMUM FOUND

c File: j6019_10.smbi10.wcnf
c optimal
c final solution cost: 75
c CPU time: 0.127348
s OPTIMUM FOUND


rcpsp/heur_output_bi_constraints/Log=10/heurj60.txt
encoding rcpsp/j60.sm/j6019_1.sm nv: 179958 nc: 427466 enctime: 4.76
encoding rcpsp/j60.sm/j6019_1.sm nv: 35778 nc: 82946 enctime: 0.57
c File: j6019_1.smnaivebi10.wcnf
c optimal
c final solution cost: 62
c CPU time: 1.037027
s OPTIMUM FOUND

c File: j6019_1.smbi10.wcnf
c optimal
c final solution cost: 62
c CPU time: 0.089122
s OPTIMUM FOUND


rcpsp/heur_output_bi_constraints/Log=10/heurj60.txt
encoding rcpsp/j60.sm/j6019_2.sm nv: 188123 nc: 471557 enctime: 5.55
encoding rcpsp/j60.sm/j6019_2.sm nv: 46407 nc: 114001 enctime: 0.76
c File: j6019_2.smnaivebi10.wcnf
c optimal
c final solution cost: 77
c CPU time: 1.308176
s OPTIMUM FOUND

c File: j6019_2.smbi10.wcnf
c optimal
c final solution cost: 77
c CPU time: 0.158521
s OPTIMUM FOUND


rcpsp/heur_output_bi_constraints/Log=10/heurj60.txt
encoding rcpsp/j60.sm/j6019_3.sm nv: 163917 nc: 404788 enctime: 4.66
encoding rcpsp/j60.sm/j6019_3.sm nv: 38294 nc: 92479 enctime: 0.61
c File: j6019_3.smnaivebi10.wcnf
c optimal
c final solution cost: 81
c CPU time: 1.095552
s OPTIMUM FOUND

c File: j6019_3.smbi10.wcnf
c optimal
c final solution cost: 81
c CPU time: 0.100979
s OPTIMUM FOUND


rcpsp/heur_output_bi_constraints/Log=10/heurj60.txt
encoding rcpsp/j60.sm/j6019_4.sm nv: 186296 nc: 431119 enctime: 4.48
encoding rcpsp/j60.sm/j6019_4.sm nv: 39712 nc: 90010 enctime: 0.59
c File: j6019_4.smnaivebi10.wcnf
c optimal
c final solution cost: 67
c CPU time: 0.963212
s OPTIMUM FOUND

c File: j6019_4.smbi10.wcnf
c optimal
c final solution cost: 67
c CPU time: 0.095365
s OPTIMUM FOUND


rcpsp/heur_output_bi_constraints/Log=10/heurj60.txt
encoding rcpsp/j60.sm/j6019_5.sm nv: 157740 nc: 385204 enctime: 4.28
encoding rcpsp/j60.sm/j6019_5.sm nv: 33938 nc: 80879 enctime: 0.53
c File: j6019_5.smnaivebi10.wcnf
c optimal
c final solution cost: 64
c CPU time: 0.978599
s OPTIMUM FOUND

c File: j6019_5.smbi10.wcnf
c optimal
c final solution cost: 64
c CPU time: 0.105212
s OPTIMUM FOUND


rcpsp/heur_output_bi_constraints/Log=10/heurj60.txt
encoding rcpsp/j60.sm/j6019_6.sm nv: 168756 nc: 411753 enctime: 4.61
encoding rcpsp/j60.sm/j6019_6.sm nv: 35424 nc: 84385 enctime: 0.57
c File: j6019_6.smnaivebi10.wcnf
c optimal
c final solution cost: 69
c CPU time: 1.122202
s OPTIMUM FOUND

c File: j6019_6.smbi10.wcnf
c optimal
c final solution cost: 69
c CPU time: 0.106697
s OPTIMUM FOUND


rcpsp/heur_output_bi_constraints/Log=10/heurj60.txt
encoding rcpsp/j60.sm/j6019_7.sm nv: 175380 nc: 406660 enctime: 4.19
encoding rcpsp/j60.sm/j6019_7.sm nv: 32190 nc: 72808 enctime: 0.47
c File: j6019_7.smnaivebi10.wcnf
c optimal
c final solution cost: 57
c CPU time: 0.954125
s OPTIMUM FOUND

c File: j6019_7.smbi10.wcnf
c optimal
c final solution cost: 57
c CPU time: 0.070510
s OPTIMUM FOUND


rcpsp/heur_output_bi_constraints/Log=10/heurj60.txt
encoding rcpsp/j60.sm/j6019_8.sm nv: 154380 nc: 377010 enctime: 4.27
encoding rcpsp/j60.sm/j6019_8.sm nv: 40920 nc: 98118 enctime: 0.64
c File: j6019_8.smnaivebi10.wcnf
c optimal
c final solution cost: 82
c CPU time: 0.972323
s OPTIMUM FOUND

c File: j6019_8.smbi10.wcnf
c optimal
c final solution cost: 82
c CPU time: 0.116018
s OPTIMUM FOUND


rcpsp/heur_output_bi_constraints/Log=10/heurj60.txt
encoding rcpsp/j60.sm/j6019_9.sm nv: 177500 nc: 431369 enctime: 4.89
encoding rcpsp/j60.sm/j6019_9.sm nv: 36000 nc: 85260 enctime: 0.56
c File: j6019_9.smnaivebi10.wcnf
c optimal
c final solution cost: 67
c CPU time: 1.152093
s OPTIMUM FOUND

c File: j6019_9.smbi10.wcnf
c optimal
c final solution cost: 67
c CPU time: 0.102466
s OPTIMUM FOUND


rcpsp/heur_output_bi_constraints/Log=10/heurj60.txt
encoding rcpsp/j60.sm/j601_9.sm nv: 128625 nc: 331929 enctime: 3.76
encoding rcpsp/j60.sm/j601_9.sm nv: 33375 nc: 84279 enctime: 0.56
c File: j601_9.smnaivebi10.wcnf
c optimal
c final solution cost: 73
c CPU time: 2.186643
s OPTIMUM FOUND

c File: j601_9.smbi10.wcnf
c optimal
c final solution cost: 73
c CPU time: 0.423934
s OPTIMUM FOUND


rcpsp/heur_output_bi_constraints/Log=10/heurj60.txt
encoding rcpsp/j60.sm/j6020_10.sm nv: 181485 nc: 425302 enctime: 4.59
encoding rcpsp/j60.sm/j6020_10.sm nv: 41625 nc: 95686 enctime: 0.62
c File: j6020_10.smnaivebi10.wcnf
c optimal
c final solution cost: 70
c CPU time: 1.017670
s OPTIMUM FOUND

c File: j6020_10.smbi10.wcnf
c optimal
c final solution cost: 70
c CPU time: 0.108581
s OPTIMUM FOUND


rcpsp/heur_output_bi_constraints/Log=10/heurj60.txt
encoding rcpsp/j60.sm/j6020_1.sm nv: 205800 nc: 476915 enctime: 5.07
encoding rcpsp/j60.sm/j6020_1.sm nv: 37800 nc: 85475 enctime: 0.57
c File: j6020_1.smnaivebi10.wcnf
c optimal
c final solution cost: 60
c CPU time: 1.118873
s OPTIMUM FOUND

c File: j6020_1.smbi10.wcnf
c optimal
c final solution cost: 60
c CPU time: 0.090081
s OPTIMUM FOUND


rcpsp/heur_output_bi_constraints/Log=10/heurj60.txt
encoding rcpsp/j60.sm/j6020_2.sm nv: 136697 nc: 321735 enctime: 3.45
encoding rcpsp/j60.sm/j6020_2.sm nv: 39732 nc: 92135 enctime: 0.60
c File: j6020_2.smnaivebi10.wcnf
c optimal
c final solution cost: 78
c CPU time: 0.789495
s OPTIMUM FOUND

c File: j6020_2.smbi10.wcnf
c optimal
c final solution cost: 78
c CPU time: 0.110038
s OPTIMUM FOUND


rcpsp/heur_output_bi_constraints/Log=10/heurj60.txt
encoding rcpsp/j60.sm/j6020_3.sm nv: 226501 nc: 521063 enctime: 5.66
encoding rcpsp/j60.sm/j6020_3.sm nv: 45430 nc: 102284 enctime: 0.68
c File: j6020_3.smnaivebi10.wcnf
c optimal
c final solution cost: 69
c CPU time: 1.216722
s OPTIMUM FOUND

c File: j6020_3.smbi10.wcnf
c optimal
c final solution cost: 69
c CPU time: 0.110035
s OPTIMUM FOUND


rcpsp/heur_output_bi_constraints/Log=10/heurj60.txt
encoding rcpsp/j60.sm/j6020_4.sm nv: 221028 nc: 504212 enctime: 5.42
encoding rcpsp/j60.sm/j6020_4.sm nv: 56724 nc: 127472 enctime: 0.82
c File: j6020_4.smnaivebi10.wcnf
c optimal
c final solution cost: 86
c CPU time: 1.110768
s OPTIMUM FOUND

c File: j6020_4.smbi10.wcnf
c optimal
c final solution cost: 86
c CPU time: 0.130815
s OPTIMUM FOUND


rcpsp/heur_output_bi_constraints/Log=10/heurj60.txt
encoding rcpsp/j60.sm/j6020_5.sm nv: 187824 nc: 446267 enctime: 4.99
encoding rcpsp/j60.sm/j6020_5.sm nv: 39312 nc: 91307 enctime: 0.61
c File: j6020_5.smnaivebi10.wcnf
c optimal
c final solution cost: 71
c CPU time: 1.096454
s OPTIMUM FOUND

c File: j6020_5.smbi10.wcnf
c optimal
c final solution cost: 71
c CPU time: 0.094995
s OPTIMUM FOUND


rcpsp/heur_output_bi_constraints/Log=10/heurj60.txt
encoding rcpsp/j60.sm/j6020_6.sm nv: 210858 nc: 489530 enctime: 5.24
encoding rcpsp/j60.sm/j6020_6.sm nv: 63444 nc: 145406 enctime: 0.93
c File: j6020_6.smnaivebi10.wcnf
c optimal
c final solution cost: 72
c CPU time: 1.094622
s OPTIMUM FOUND

c File: j6020_6.smbi10.wcnf
c optimal
c final solution cost: 72
c CPU time: 0.175845
s OPTIMUM FOUND


rcpsp/heur_output_bi_constraints/Log=10/heurj60.txt
encoding rcpsp/j60.sm/j6020_7.sm nv: 209902 nc: 484810 enctime: 4.93
encoding rcpsp/j60.sm/j6020_7.sm nv: 39556 nc: 89383 enctime: 0.58
c File: j6020_7.smnaivebi10.wcnf
c optimal
c final solution cost: 61
c CPU time: 1.045869
s OPTIMUM FOUND

c File: j6020_7.smbi10.wcnf
c optimal
c final solution cost: 61
c CPU time: 0.085505
s OPTIMUM FOUND


rcpsp/heur_output_bi_constraints/Log=10/heurj60.txt
encoding rcpsp/j60.sm/j6020_8.sm nv: 178856 nc: 411930 enctime: 4.34
encoding rcpsp/j60.sm/j6020_8.sm nv: 40186 nc: 90735 enctime: 0.58
c File: j6020_8.smnaivebi10.wcnf
c optimal
c final solution cost: 65
c CPU time: 0.937469
s OPTIMUM FOUND

c File: j6020_8.smbi10.wcnf
c optimal
c final solution cost: 65
c CPU time: 0.097633
s OPTIMUM FOUND


rcpsp/heur_output_bi_constraints/Log=10/heurj60.txt
encoding rcpsp/j60.sm/j6020_9.sm nv: 180411 nc: 444655 enctime: 5.19
encoding rcpsp/j60.sm/j6020_9.sm nv: 34790 nc: 83386 enctime: 0.38
c File: j6020_9.smnaivebi10.wcnf
c optimal
c final solution cost: 69
c CPU time: 1.132648
s OPTIMUM FOUND

c File: j6020_9.smbi10.wcnf
c optimal
c final solution cost: 69
c CPU time: 0.082017
s OPTIMUM FOUND


